WARNING: for repeatability, setting FPU to use double precision
============================[ Problem Statistics ]=============================
|                                                                             |
|  Number of variables:        219725                                         |
|  Number of clauses:          512235                                         |
|  Parse time:                   0.18 s                                       |
|                                                                             |
============================[ Search Statistics ]==============================
| Conflicts |          ORIGINAL         |          LEARNT          | Progress |
|           |    Vars  Clauses Literals |    Limit  Clauses Lit/Cl |          |
===============================================================================
|       100 |  121796   491757  1104510 |   180310      100      9 | 44.569 % |
|       250 |  121796   491757  1104510 |   198341      250     35 | 44.569 % |
|       475 |  121796   491757  1104510 |   218176      475     36 | 44.569 % |
|       812 |  121796   491757  1104510 |   239993      812     43 | 44.569 % |
|      1318 |  121796   491757  1104510 |   263993     1318     56 | 44.569 % |
|      2077 |  121796   491757  1104510 |   290392     2077     52 | 44.569 % |
|      3216 |  121796   491757  1104510 |   319431     3216     72 | 44.569 % |
===============================================================================
restarts              : 17
conflicts             : 3381           (2753 /sec)
decisions             : 40793          (0.00 % random) (33217 /sec)
propagations          : 6800634        (5537633 /sec)
conflict literals     : 237736         (10.03 % deleted)
Memory used           : 61.00 MB
CPU time              : 1.22808 s

SATISFIABLE
